Maximize
  0 x0 - 12 x1 + 0 x2 + 0 x3 - 42 x4 + 0 x5 + 0 x6 + 0 x7 + 0 x8 + 0 x9
   + 0 x10 + 34 x11 + 39 x12 + 0 x13 + 0 x14 + 0 x15 + 0 x16 + 0 x17
   + 7 x18 + 4 x19 + 0 x20 + 0 x21 - 15 x22 - 31 x23 + 0 x24 + 0 x25
   + 0 x26 + 0 x27 + 0 x28 - 36 x29 + 3 x30 + 11 x31 + 0 x32 + 0 x33
   - 34 x34 + 0 x35 + 0 x36 + 0 x37 + 0 x38 + 0 x39 + 0 x40 + 0 x41
   - 17 x42 + 0 x43 + 0 x44 + 42 x45 + 0 x46 - 45 x47 + 0 x48 + 46 x49 + [
   46 x0 * x3 + 68 x0 * x4 + 90 x0 * x5 + 94 x0 * x8 - 94 x0 * x9
   + 96 x0 * x11 - 16 x0 * x13 + 58 x0 * x14 + 50 x0 * x17 - 82 x0 * x18
   - 2 x0 * x20 - 90 x0 * x27 + 84 x0 * x28 + 18 x0 * x29 - 40 x0 * x30
   + 44 x0 * x31 - 8 x0 * x34 - 64 x0 * x40 + 78 x0 * x42 + 32 x0 * x43
   + 60 x0 * x48 - 42 x0 * x49 + 5 x1 ^2 - 84 x1 * x4 - 14 x1 * x6
   + 40 x1 * x7 + 92 x1 * x9 - 48 x1 * x14 + 40 x1 * x16 + 80 x1 * x18
   + 32 x1 * x19 + 80 x1 * x24 - 62 x1 * x25 - 32 x1 * x26 - 66 x1 * x28
   + 34 x1 * x33 + 72 x1 * x34 - 2 x1 * x35 - 18 x1 * x37 + 20 x1 * x38
   + 8 x1 * x39 + 34 x1 * x45 - 12 x1 * x46 - 24 x2 * x6 + 72 x2 * x11
   - 74 x2 * x13 + 96 x2 * x15 - 86 x2 * x17 + 12 x2 * x19 + 82 x2 * x21
   + 84 x2 * x31 + 22 x2 * x33 - 90 x2 * x36 - 82 x2 * x37 + 20 x2 * x38
   - 72 x2 * x42 - 86 x2 * x45 + 60 x2 * x46 - 4 x2 * x48 + 26 x2 * x49
   - 4 x3 ^2 - 32 x3 * x5 + 78 x3 * x10 + 22 x3 * x15 + 66 x3 * x16
   - 92 x3 * x17 - 58 x3 * x18 - 96 x3 * x19 + 30 x3 * x20 + 38 x3 * x22
   - 56 x3 * x23 - 52 x3 * x24 + 86 x3 * x25 - 22 x3 * x26 - 98 x3 * x27
   - 54 x3 * x29 + 96 x3 * x30 + 58 x3 * x34 - 8 x3 * x35 + 6 x3 * x37
   + 68 x3 * x38 - 72 x3 * x42 - 40 x3 * x43 - 42 x3 * x44 - 70 x3 * x46
   + 60 x3 * x48 - 14 x3 * x49 - 29 x4 ^2 - 48 x4 * x5 - 6 x4 * x7
   - 88 x4 * x9 + 78 x4 * x11 - 76 x4 * x14 + 20 x4 * x16 + 74 x4 * x22
   + 64 x4 * x26 - 18 x4 * x27 + 34 x4 * x28 - 62 x4 * x31 - 70 x4 * x32
   - 44 x4 * x35 + 12 x4 * x39 + 36 x4 * x40 + 70 x4 * x43 + 92 x5 * x7
   + 58 x5 * x12 - 98 x5 * x14 - 4 x5 * x15 + 4 x5 * x16 + 56 x5 * x18
   - 8 x5 * x19 + 42 x5 * x20 + 12 x5 * x21 - 4 x5 * x25 + 36 x5 * x31
   - 38 x5 * x32 + 10 x5 * x36 - 90 x5 * x37 + 98 x5 * x38 - 82 x5 * x39
   + 34 x5 * x40 - 66 x5 * x41 - 6 x5 * x44 - 60 x5 * x49 + 86 x6 * x9
   - 70 x6 * x10 - 6 x6 * x11 - 90 x6 * x12 + 78 x6 * x13 + 90 x6 * x14
   - 16 x6 * x16 + 40 x6 * x20 + 86 x6 * x21 + 36 x6 * x22 + 50 x6 * x34
   + 4 x6 * x37 - 46 x6 * x38 + 88 x6 * x39 - 88 x6 * x40 + 14 x6 * x45
   + 40 x6 * x47 + 84 x6 * x49 - 8 x7 ^2 + 86 x7 * x9 - 44 x7 * x11
   + 88 x7 * x12 - 70 x7 * x13 + 58 x7 * x15 + 72 x7 * x17 + 54 x7 * x19
   - 72 x7 * x20 - 68 x7 * x21 + 42 x7 * x25 - 70 x7 * x27 + 30 x7 * x29
   + 44 x7 * x30 - 10 x7 * x32 - 16 x7 * x35 + 62 x7 * x36 + 26 x7 * x41
   - 28 x7 * x45 + 66 x7 * x46 + 42 x7 * x48 + 92 x8 * x9 - 34 x8 * x10
   - 44 x8 * x15 + 56 x8 * x21 - 36 x8 * x24 + 68 x8 * x25 - 38 x8 * x26
   - 40 x8 * x28 + 64 x8 * x32 + 58 x8 * x33 - 58 x8 * x36 - 88 x8 * x39
   - 38 x8 * x41 - 70 x8 * x42 - 34 x8 * x47 + 28 x8 * x48 + 28 x9 * x16
   + 6 x9 * x20 - 72 x9 * x21 + 68 x9 * x23 - 86 x9 * x24 - 84 x9 * x26
   + 90 x9 * x27 + 24 x9 * x28 - 32 x9 * x34 + 14 x9 * x40 - 52 x9 * x43
   - 84 x9 * x45 + 98 x10 * x15 - 10 x10 * x16 - 26 x10 * x19
   + 36 x10 * x21 - 90 x10 * x25 + 76 x10 * x26 - 70 x10 * x29
   - 42 x10 * x31 + 22 x10 * x32 + 38 x10 * x33 - 88 x10 * x39
   + 96 x10 * x40 + 18 x10 * x41 + 26 x10 * x42 - 56 x10 * x43
   - 16 x10 * x45 - 78 x10 * x49 - 38 x11 ^2 + 80 x11 * x17 + 46 x11 * x18
   - 76 x11 * x21 - 92 x11 * x24 - 34 x11 * x26 - 66 x11 * x30
   + 18 x11 * x31 - 10 x11 * x32 + 20 x11 * x35 + 20 x11 * x38
   - 58 x11 * x41 - 94 x11 * x42 - 36 x11 * x43 + 4 x11 * x44
   - 28 x11 * x46 - 64 x11 * x49 - 33 x12 ^2 - 98 x12 * x14 - 6 x12 * x17
   + 22 x12 * x18 + 88 x12 * x22 - 12 x12 * x24 + 4 x12 * x26
   - 66 x12 * x31 - 48 x12 * x36 - 48 x12 * x39 + 96 x12 * x47
   - 38 x12 * x49 - 70 x13 * x18 - 22 x13 * x20 - 66 x13 * x21
   - 86 x13 * x24 - 52 x13 * x27 + 88 x13 * x30 + 48 x13 * x47
   - 10 x14 * x16 - 44 x14 * x18 - 36 x14 * x19 + 38 x14 * x22
   + 82 x14 * x23 - 46 x14 * x29 - 84 x14 * x34 + 94 x14 * x35
   + 50 x14 * x36 - 58 x14 * x37 - 30 x14 * x39 - 76 x14 * x40
   + 96 x14 * x47 - 36 x15 * x16 - 64 x15 * x17 - 80 x15 * x23
   + 30 x15 * x31 - 16 x15 * x33 + 84 x15 * x35 - 80 x15 * x40
   + 88 x15 * x43 - 80 x15 * x44 + 46 x15 * x47 + 38 x16 * x18
   - 54 x16 * x19 - 24 x16 * x23 - 74 x16 * x36 + 36 x16 * x39
   + 44 x16 * x40 + 6 x16 * x42 - 82 x16 * x47 + 32 x17 * x18
   + 28 x17 * x22 + 70 x17 * x25 + 82 x17 * x26 - 44 x17 * x27
   + 12 x17 * x30 + 20 x17 * x35 - 82 x17 * x36 + 34 x17 * x37
   - 68 x17 * x38 - 28 x17 * x44 + 88 x17 * x46 + 78 x17 * x47
   + 98 x18 * x20 + 36 x18 * x22 + 86 x18 * x25 - 20 x18 * x26
   - 62 x18 * x27 + 72 x18 * x28 + 88 x18 * x29 + 64 x18 * x33
   + 86 x18 * x34 - 14 x18 * x39 - 10 x18 * x40 - 6 x18 * x41
   - 88 x18 * x43 - 26 x18 * x44 + 39 x19 ^2 - 42 x19 * x23 - 36 x19 * x24
   + 80 x19 * x25 + 2 x19 * x26 + 2 x19 * x27 + 28 x19 * x28 + 76 x19 * x33
   - 64 x19 * x36 + 50 x19 * x38 + 2 x19 * x42 + 40 x19 * x43
   + 56 x19 * x44 + 26 x19 * x47 - 64 x19 * x48 - 49 x20 ^2 - 32 x20 * x30
   - 84 x20 * x32 + 76 x20 * x36 - 62 x20 * x40 + 86 x20 * x41
   + 18 x20 * x44 + 62 x20 * x46 + 72 x20 * x49 - 39 x21 ^2 - 4 x21 * x22
   - 52 x21 * x27 + 98 x21 * x29 + 64 x21 * x31 - 24 x21 * x34
   - 52 x21 * x35 + 54 x21 * x38 + 74 x21 * x39 - 70 x21 * x44
   + 52 x21 * x46 + 98 x21 * x48 - 34 x21 * x49 + 2 x22 * x25
   + 30 x22 * x27 - 66 x22 * x32 + 68 x22 * x34 - 88 x22 * x36
   + 80 x22 * x37 + 52 x22 * x38 - 28 x22 * x39 + 98 x22 * x41
   + 68 x22 * x42 + 44 x22 * x45 - 30 x23 ^2 - 2 x23 * x24 - 4 x23 * x28
   - 74 x23 * x31 - 20 x23 * x32 - 12 x23 * x40 + 68 x23 * x44
   - 92 x23 * x48 - 44 x24 ^2 + 72 x24 * x29 + 4 x24 * x30 + 84 x24 * x32
   + 26 x24 * x36 + 72 x24 * x37 + 36 x24 * x42 - 50 x24 * x44
   + 68 x24 * x48 - 84 x24 * x49 + 42 x25 ^2 + 40 x25 * x26 - 12 x25 * x32
   - 92 x25 * x34 + 94 x25 * x35 - 56 x25 * x36 - 94 x25 * x37
   - 40 x25 * x40 + 6 x25 * x41 - 4 x25 * x42 - 92 x25 * x46 + 92 x25 * x49
   - 2 x26 ^2 - 90 x26 * x28 + 18 x26 * x31 + 14 x26 * x37 - 44 x26 * x41
   + 34 x26 * x42 + 26 x26 * x43 - 28 x26 * x44 + 28 x26 * x47
   - 88 x27 * x28 - 58 x27 * x30 - 28 x27 * x37 - 48 x27 * x41
   + 64 x27 * x43 - 48 x27 * x44 + 20 x27 * x48 + 12 x28 * x31
   + 68 x28 * x32 + 16 x28 * x33 + 80 x28 * x34 + 14 x28 * x37
   + 82 x28 * x38 + 56 x28 * x39 - 20 x28 * x41 + 32 x28 * x42
   - 24 x28 * x43 + 82 x28 * x46 - 78 x28 * x49 - 6 x29 ^2 - 46 x29 * x31
   + 36 x29 * x34 + 76 x29 * x38 + 42 x29 * x44 - 60 x29 * x45
   - 32 x29 * x47 + 20 x29 * x48 + 4 x30 * x31 + 96 x30 * x36
   - 80 x30 * x39 - 86 x30 * x40 - 48 x30 * x41 - 34 x30 * x42
   - 2 x30 * x48 + 34 x30 * x49 + 26 x31 ^2 - 18 x31 * x32 + 6 x31 * x42
   - 30 x31 * x46 + 14 x31 * x47 + x32 ^2 - 42 x32 * x33 + 46 x32 * x34
   + 80 x32 * x36 + 48 x32 * x37 + 30 x32 * x38 + 62 x32 * x42
   - 76 x32 * x48 + 96 x33 * x34 + 10 x33 * x37 - 42 x33 * x39
   - 20 x33 * x40 + 36 x33 * x41 - 52 x33 * x42 - 54 x33 * x45
   - 64 x33 * x48 + 26 x34 ^2 + 44 x34 * x35 - 24 x34 * x39 - 48 x34 * x40
   - 30 x34 * x41 - 54 x34 * x42 - 76 x34 * x46 - 44 x34 * x47
   + 68 x34 * x48 - 2 x35 ^2 + 6 x35 * x36 - 28 x35 * x43 + 50 x36 * x37
   - 42 x36 * x42 - 78 x36 * x43 - 4 x36 * x44 + 18 x36 * x48 - 8 x37 ^2
   - 42 x37 * x41 - 8 x37 * x43 + 14 x37 * x45 + 96 x37 * x46
   - 82 x37 * x48 - 94 x37 * x49 + 88 x38 * x40 + 66 x38 * x41
   - 28 x38 * x42 + 78 x38 * x45 + 84 x38 * x46 + 6 x39 * x41
   + 84 x39 * x44 - 34 x39 * x46 - 42 x39 * x48 - 52 x40 * x41
   + 62 x40 * x42 + 86 x40 * x43 + 98 x40 * x45 + 68 x40 * x47
   + 16 x41 * x42 + 86 x41 * x45 + 78 x41 * x47 + 84 x41 * x48 + 9 x42 ^2
   + 48 x42 * x43 + 72 x42 * x47 - 36 x42 * x48 - 84 x42 * x49
   + 20 x43 * x44 - 92 x43 * x47 - 10 x44 * x45 + 8 x44 * x47
   - 76 x44 * x48 - 8 x45 ^2 - 70 x45 * x46 - 22 x45 * x47 + 98 x45 * x48
   - 40 x46 * x47 + 36 x46 * x49 ] / 2 
Subject To
Bounds
 x0 <= 1
 x1 <= 1
 x2 <= 1
 x3 <= 1
 x4 <= 1
 x5 <= 1
 x6 <= 1
 x7 <= 1
 x8 <= 1
 x9 <= 1
 x10 <= 1
 x11 <= 1
 x12 <= 1
 x13 <= 1
 x14 <= 1
 x15 <= 1
 x16 <= 1
 x17 <= 1
 x18 <= 1
 x19 <= 1
 x20 <= 1
 x21 <= 1
 x22 <= 1
 x23 <= 1
 x24 <= 1
 x25 <= 1
 x26 <= 1
 x27 <= 1
 x28 <= 1
 x29 <= 1
 x30 <= 1
 x31 <= 1
 x32 <= 1
 x33 <= 1
 x34 <= 1
 x35 <= 1
 x36 <= 1
 x37 <= 1
 x38 <= 1
 x39 <= 1
 x40 <= 1
 x41 <= 1
 x42 <= 1
 x43 <= 1
 x44 <= 1
 x45 <= 1
 x46 <= 1
 x47 <= 1
 x48 <= 1
 x49 <= 1
End
